c generated by sgen
c see http://www.cs.qub.ac.uk/~i.spence/sgen
p cnf 61 132
-2 -3 -4 0
-1 -3 -4 0
-1 -2 -4 0
-1 -2 -3 0
-6 -7 -8 0
-5 -7 -8 0
-5 -6 -8 0
-5 -6 -7 0
-10 -11 -12 0
-9 -11 -12 0
-9 -10 -12 0
-9 -10 -11 0
-14 -15 -16 0
-13 -15 -16 0
-13 -14 -16 0
-13 -14 -15 0
-18 -19 -20 0
-17 -19 -20 0
-17 -18 -20 0
-17 -18 -19 0
-22 -23 -24 0
-21 -23 -24 0
-21 -22 -24 0
-21 -22 -23 0
-26 -27 -28 0
-25 -27 -28 0
-25 -26 -28 0
-25 -26 -27 0
-30 -31 -32 0
-29 -31 -32 0
-29 -30 -32 0
-29 -30 -31 0
-34 -35 -36 0
-33 -35 -36 0
-33 -34 -36 0
-33 -34 -35 0
-38 -39 -40 0
-37 -39 -40 0
-37 -38 -40 0
-37 -38 -39 0
-42 -43 -44 0
-41 -43 -44 0
-41 -42 -44 0
-41 -42 -43 0
-46 -47 -48 0
-45 -47 -48 0
-45 -46 -48 0
-45 -46 -47 0
-50 -51 -52 0
-49 -51 -52 0
-49 -50 -52 0
-49 -50 -51 0
-54 -55 -56 0
-53 -55 -56 0
-53 -54 -56 0
-53 -54 -55 0
-57 -58 -59 0
-57 -58 -60 0
-57 -58 -61 0
-57 -59 -60 0
-57 -59 -61 0
-57 -60 -61 0
-58 -59 -60 0
-58 -59 -61 0
-58 -60 -61 0
-59 -60 -61 0
51 55 39 0
59 55 39 0
59 51 39 0
59 51 55 0
5 44 22 0
47 44 22 0
47 5 22 0
47 5 44 0
40 36 27 0
48 36 27 0
48 40 27 0
48 40 36 0
56 25 29 0
23 25 29 0
23 56 29 0
23 56 25 0
15 53 45 0
9 53 45 0
9 15 45 0
9 15 53 0
32 8 57 0
3 8 57 0
3 32 57 0
3 32 8 0
38 19 6 0
10 19 6 0
10 38 6 0
10 38 19 0
34 49 31 0
11 49 31 0
11 34 31 0
11 34 49 0
35 42 54 0
17 42 54 0
17 35 54 0
17 35 42 0
61 1 33 0
24 1 33 0
24 61 33 0
24 61 1 0
7 50 14 0
28 50 14 0
28 7 14 0
28 7 50 0
26 12 43 0
58 12 43 0
58 26 43 0
58 26 12 0
52 46 4 0
18 46 4 0
18 52 4 0
18 52 46 0
20 21 60 0
16 21 60 0
16 20 60 0
16 20 21 0
13 41 37 0
13 41 2 0
13 41 30 0
13 37 2 0
13 37 30 0
13 2 30 0
41 37 2 0
41 37 30 0
41 2 30 0
37 2 30 0
